(declare-const p6_99 Real)
(declare-const income Real)
(declare-const p6_50 Real)
(declare-const fee_bl Real)
(declare-const p4_50 Real)
(declare-const p6_00 Real)
(declare-const p5_50 Real)
(declare-const p6_90 Real)
(declare-const p2_00 Real)
(assert (= p2_00 (* 0.0200 (ite (> income 20000) 20000 income))))
(assert (= p4_50 (ite (> income 20000) (* 0.0450 (- (ite (> income 100000) 100000 income) 20000)) 0)))
(assert (= p5_50 (ite (> income 100000) (* 0.0550 (- (ite (> income 200000) 200000 income) 100000)) 0)))
(assert (= p6_00 (ite (> income 200000) (* 0.0600 (- (ite (> income 400000) 400000 income) 200000)) 0)))
(assert (= p6_50 (ite (> income 400000) (* 0.0650 (- (ite (> income 500000) 500000 income) 400000)) 0)))
(assert (= p6_90 (ite (> income 500000) (* 0.0690 (- (ite (> income 1000000) 1000000 income) 500000)) 0)))
(assert (= p6_99 (ite (> income 1000000) (* 0.0699 (- income 1000000)) 0)))
(assert (= fee_bl (+ (+ (+ (+ (+ (+ p2_00 p4_50) p5_50) p6_00) p6_50) p6_90) p6_99)))